(set-info :smt-lib-version 2.6)
(set-info :category "crafted")
(set-logic QF_FF)
(define-sort FF0 () (_ FiniteField 52435875175126190479447740508185965837690552500527637822603658699938581184513))
(declare-fun mul_n29_alt () FF0)
(declare-fun mul_n25_alt () FF0)
(declare-fun mul_n28_alt () FF0)
(declare-fun is_zero_n27_alt () FF0)
(declare-fun j_n5_alt () FF0)
(declare-fun d_n6_alt () FF0)
(declare-fun l_n1_alt () FF0)
(declare-fun a_n12_alt () FF0)
(declare-fun g_n0_alt () FF0)
(declare-fun is_zero_inv_n26_alt () FF0)
(declare-fun e_n4_alt () FF0)
(declare-fun b_n10_alt () FF0)
(declare-fun is_zero_n19_alt () FF0)
(declare-fun mul_n22_alt () FF0)
(declare-fun mul_n15_alt () FF0)
(declare-fun f_n2_alt () FF0)
(declare-fun mul_n20_alt () FF0)
(declare-fun mul_n13_alt () FF0)
(declare-fun is_zero_n24_alt () FF0)
(declare-fun is_zero_inv_n23_alt () FF0)
(declare-fun mul_n16_alt () FF0)
(declare-fun mul_n21_alt () FF0)
(declare-fun k_n3_alt () FF0)
(declare-fun i_n7_alt () FF0)
(declare-fun h_n11_alt () FF0)
(declare-fun mul_n17_alt () FF0)
(declare-fun is_zero_inv_n18_alt () FF0)
(declare-fun mul_n14_alt () FF0)
(declare-fun c_n8_alt () FF0)
(declare-fun mul_n29 () FF0)
(declare-fun mul_n25 () FF0)
(declare-fun mul_n28 () FF0)
(declare-fun is_zero_n27 () FF0)
(declare-fun j_n5 () FF0)
(declare-fun d_n6 () FF0)
(declare-fun l_n1 () FF0)
(declare-fun a_n12 () FF0)
(declare-fun g_n0 () FF0)
(declare-fun is_zero_inv_n26 () FF0)
(declare-fun e_n4 () FF0)
(declare-fun b_n10 () FF0)
(declare-fun is_zero_n19 () FF0)
(declare-fun mul_n22 () FF0)
(declare-fun mul_n15 () FF0)
(declare-fun f_n2 () FF0)
(declare-fun mul_n20 () FF0)
(declare-fun mul_n13 () FF0)
(declare-fun is_zero_n24 () FF0)
(declare-fun is_zero_inv_n23 () FF0)
(declare-fun mul_n16 () FF0)
(declare-fun mul_n21 () FF0)
(declare-fun k_n3 () FF0)
(declare-fun i_n7 () FF0)
(declare-fun h_n11 () FF0)
(declare-fun mul_n17 () FF0)
(declare-fun is_zero_inv_n18 () FF0)
(declare-fun mul_n14 () FF0)
(declare-fun c_n8 () FF0)
(declare-fun return_n9_alt () FF0)
(declare-fun return_n9 () FF0)
(assert 
  (let ((let0 mul_n29_alt))
  (let ((let1 (as ff1 FF0)))
  (let ((let2 (as ff52435875175126190479447740508185965837690552500527637822603658699938581184512 FF0)))
  (let ((let3 mul_n25_alt))
  (let ((let4 (ff.mul let3 let2)))
  (let ((let5 (ff.add let4 let1)))
  (let ((let6 mul_n28_alt))
  (let ((let7 (ff.mul let6 let2)))
  (let ((let8 (ff.add let7 let1)))
  (let ((let9 (ff.mul let8 let5)))
  (let ((let10 (= let9 let0)))
  (let ((let11 is_zero_n27_alt))
  (let ((let12 (ff.mul let11 let2)))
  (let ((let13 (ff.add let12 let1)))
  (let ((let14 j_n5_alt))
  (let ((let15 (ff.mul let14 let13)))
  (let ((let16 (= let15 let6)))
  (let ((let17 (as ff0 FF0)))
  (let ((let18 (as ff5 FF0)))
  (let ((let19 d_n6_alt))
  (let ((let20 (ff.mul let19 let2)))
  (let ((let21 l_n1_alt))
  (let ((let22 (ff.mul let21 let2)))
  (let ((let23 (as ff52435875175126190479447740508185965837690552500527637822603658699938581184511 FF0)))
  (let ((let24 a_n12_alt))
  (let ((let25 (ff.mul let24 let23)))
  (let ((let26 g_n0_alt))
  (let ((let27 (ff.mul let26 let2)))
  (let ((let28 (ff.add let27 let25 let22 let20 let18)))
  (let ((let29 (ff.mul let11 let28)))
  (let ((let30 (= let29 let17)))
  (let ((let31 is_zero_inv_n26_alt))
  (let ((let32 (ff.mul let31 let28)))
  (let ((let33 (= let32 let13)))
  (let ((let34 e_n4_alt))
  (let ((let35 (ff.mul let34 let2)))
  (let ((let36 (ff.add let35 let1)))
  (let ((let37 b_n10_alt))
  (let ((let38 (ff.mul let37 let2)))
  (let ((let39 (ff.add let38 let1)))
  (let ((let40 (ff.mul let39 let36)))
  (let ((let41 (= let40 let3)))
  (let ((let42 (as ff6 FF0)))
  (let ((let43 is_zero_n19_alt))
  (let ((let44 (ff.mul let43 let2)))
  (let ((let45 mul_n22_alt))
  (let ((let46 (ff.mul let45 let2)))
  (let ((let47 mul_n15_alt))
  (let ((let48 (ff.mul let47 let2)))
  (let ((let49 f_n2_alt))
  (let ((let50 (ff.mul let49 let23)))
  (let ((let51 mul_n20_alt))
  (let ((let52 (ff.mul let51 let23)))
  (let ((let53 mul_n13_alt))
  (let ((let54 (ff.mul let53 let23)))
  (let ((let55 (ff.add let54 let52 let35 let50 let48 let46 let44 let42)))
  (let ((let56 is_zero_n24_alt))
  (let ((let57 (ff.mul let56 let55)))
  (let ((let58 (= let57 let17)))
  (let ((let59 (ff.mul let56 let2)))
  (let ((let60 (ff.add let59 let1)))
  (let ((let61 is_zero_inv_n23_alt))
  (let ((let62 (ff.mul let61 let55)))
  (let ((let63 (= let62 let60)))
  (let ((let64 mul_n16_alt))
  (let ((let65 (ff.mul let64 let2)))
  (let ((let66 (ff.add let65 let1)))
  (let ((let67 mul_n21_alt))
  (let ((let68 (ff.mul let67 let66)))
  (let ((let69 (= let68 let45)))
  (let ((let70 k_n3_alt))
  (let ((let71 (ff.mul let70 let37)))
  (let ((let72 (= let71 let67)))
  (let ((let73 i_n7_alt))
  (let ((let74 (ff.mul let49 let2)))
  (let ((let75 (ff.mul let53 let2)))
  (let ((let76 (ff.add let75 let74 let73)))
  (let ((let77 (ff.mul let43 let76)))
  (let ((let78 (= let77 let51)))
  (let ((let79 (as ff2 FF0)))
  (let ((let80 h_n11_alt))
  (let ((let81 mul_n17_alt))
  (let ((let82 (ff.mul let73 let2)))
  (let ((let83 (ff.add let49 let82 let81 let22 let80 let79)))
  (let ((let84 (ff.mul let43 let83)))
  (let ((let85 (= let84 let17)))
  (let ((let86 (ff.add let44 let1)))
  (let ((let87 is_zero_inv_n18_alt))
  (let ((let88 (ff.mul let87 let83)))
  (let ((let89 (= let88 let86)))
  (let ((let90 (ff.mul let14 let2)))
  (let ((let91 (ff.add let90 let1)))
  (let ((let92 (ff.mul let91 let64)))
  (let ((let93 (= let92 let81)))
  (let ((let94 (ff.add let27 let1)))
  (let ((let95 (ff.mul let70 let94)))
  (let ((let96 (= let95 let64)))
  (let ((let97 (ff.add let75 let74 let1)))
  (let ((let98 mul_n14_alt))
  (let ((let99 (ff.mul let98 let97)))
  (let ((let100 (= let99 let47)))
  (let ((let101 (ff.mul let80 let2)))
  (let ((let102 (ff.add let101 let1)))
  (let ((let103 (ff.add let20 let1)))
  (let ((let104 (ff.mul let103 let102)))
  (let ((let105 (= let104 let98)))
  (let ((let106 c_n8_alt))
  (let ((let107 (ff.add let106 let74)))
  (let ((let108 (ff.mul let34 let107)))
  (let ((let109 (= let108 let53)))
  (let ((let110 (and let109 let105 let100 let96 let93 let89 let85 let78 let72 let69 let63 let58 let41 let33 let30 let16 let10)))
  (let ((let111 mul_n29))
  (let ((let112 mul_n25))
  (let ((let113 (ff.mul let112 let2)))
  (let ((let114 (ff.add let113 let1)))
  (let ((let115 mul_n28))
  (let ((let116 (ff.mul let115 let2)))
  (let ((let117 (ff.add let116 let1)))
  (let ((let118 (ff.mul let117 let114)))
  (let ((let119 (= let118 let111)))
  (let ((let120 is_zero_n27))
  (let ((let121 (ff.mul let120 let2)))
  (let ((let122 (ff.add let121 let1)))
  (let ((let123 j_n5))
  (let ((let124 (ff.mul let123 let122)))
  (let ((let125 (= let124 let115)))
  (let ((let126 d_n6))
  (let ((let127 (ff.mul let126 let2)))
  (let ((let128 l_n1))
  (let ((let129 (ff.mul let128 let2)))
  (let ((let130 a_n12))
  (let ((let131 (ff.mul let130 let23)))
  (let ((let132 g_n0))
  (let ((let133 (ff.mul let132 let2)))
  (let ((let134 (ff.add let133 let131 let129 let127 let18)))
  (let ((let135 (ff.mul let120 let134)))
  (let ((let136 (= let135 let17)))
  (let ((let137 is_zero_inv_n26))
  (let ((let138 (ff.mul let137 let134)))
  (let ((let139 (= let138 let122)))
  (let ((let140 e_n4))
  (let ((let141 (ff.mul let140 let2)))
  (let ((let142 (ff.add let141 let1)))
  (let ((let143 b_n10))
  (let ((let144 (ff.mul let143 let2)))
  (let ((let145 (ff.add let144 let1)))
  (let ((let146 (ff.mul let145 let142)))
  (let ((let147 (= let146 let112)))
  (let ((let148 is_zero_n19))
  (let ((let149 (ff.mul let148 let2)))
  (let ((let150 mul_n22))
  (let ((let151 (ff.mul let150 let2)))
  (let ((let152 mul_n15))
  (let ((let153 (ff.mul let152 let2)))
  (let ((let154 f_n2))
  (let ((let155 (ff.mul let154 let23)))
  (let ((let156 mul_n20))
  (let ((let157 (ff.mul let156 let23)))
  (let ((let158 mul_n13))
  (let ((let159 (ff.mul let158 let23)))
  (let ((let160 (ff.add let159 let157 let141 let155 let153 let151 let149 let42)))
  (let ((let161 is_zero_n24))
  (let ((let162 (ff.mul let161 let160)))
  (let ((let163 (= let162 let17)))
  (let ((let164 (ff.mul let161 let2)))
  (let ((let165 (ff.add let164 let1)))
  (let ((let166 is_zero_inv_n23))
  (let ((let167 (ff.mul let166 let160)))
  (let ((let168 (= let167 let165)))
  (let ((let169 mul_n16))
  (let ((let170 (ff.mul let169 let2)))
  (let ((let171 (ff.add let170 let1)))
  (let ((let172 mul_n21))
  (let ((let173 (ff.mul let172 let171)))
  (let ((let174 (= let173 let150)))
  (let ((let175 k_n3))
  (let ((let176 (ff.mul let175 let143)))
  (let ((let177 (= let176 let172)))
  (let ((let178 i_n7))
  (let ((let179 (ff.mul let154 let2)))
  (let ((let180 (ff.mul let158 let2)))
  (let ((let181 (ff.add let180 let179 let178)))
  (let ((let182 (ff.mul let148 let181)))
  (let ((let183 (= let182 let156)))
  (let ((let184 h_n11))
  (let ((let185 mul_n17))
  (let ((let186 (ff.mul let178 let2)))
  (let ((let187 (ff.add let154 let186 let185 let129 let184 let79)))
  (let ((let188 (ff.mul let148 let187)))
  (let ((let189 (= let188 let17)))
  (let ((let190 (ff.add let149 let1)))
  (let ((let191 is_zero_inv_n18))
  (let ((let192 (ff.mul let191 let187)))
  (let ((let193 (= let192 let190)))
  (let ((let194 (ff.mul let123 let2)))
  (let ((let195 (ff.add let194 let1)))
  (let ((let196 (ff.mul let195 let169)))
  (let ((let197 (= let196 let185)))
  (let ((let198 (ff.add let133 let1)))
  (let ((let199 (ff.mul let175 let198)))
  (let ((let200 (= let199 let169)))
  (let ((let201 (ff.add let180 let179 let1)))
  (let ((let202 mul_n14))
  (let ((let203 (ff.mul let202 let201)))
  (let ((let204 (= let203 let152)))
  (let ((let205 (ff.mul let184 let2)))
  (let ((let206 (ff.add let205 let1)))
  (let ((let207 (ff.add let127 let1)))
  (let ((let208 (ff.mul let207 let206)))
  (let ((let209 (= let208 let202)))
  (let ((let210 c_n8))
  (let ((let211 (ff.add let210 let179)))
  (let ((let212 (ff.mul let140 let211)))
  (let ((let213 (= let212 let158)))
  (let ((let214 (and let213 let209 let204 let200 let197 let193 let189 let183 let177 let174 let168 let163 let147 let139 let136 let125 let119)))
  (let ((let215 return_n9_alt))
  (let ((let216 return_n9))
  (let ((let217 (= let216 let215)))
  (let ((let218 (not let217)))
  (let ((let219 (= let143 let37)))
  (let ((let220 (= let140 let34)))
  (let ((let221 (= let130 let24)))
  (let ((let222 (= let178 let73)))
  (let ((let223 (= let128 let21)))
  (let ((let224 (= let175 let70)))
  (let ((let225 (= let154 let49)))
  (let ((let226 (= let184 let80)))
  (let ((let227 (= let126 let19)))
  (let ((let228 (= let123 let14)))
  (let ((let229 (= let132 let26)))
  (let ((let230 (= let210 let106)))
  (let ((let231 (and let230 let229 let228 let227 let226 let225 let224 let223 let222 let221 let220 let219)))
  (let ((let232 (and let231 let218 let214 let110)))
  let232
)))))))))))))))))))))))))))))))))))))))))))))))))))))))))))))))))))))))))))))))))))))))))))))))))))))))))))))))))))))))))))))))))))))))))))))))))))))))))))))))))))))))))))))))))))))))))))))))))))))))))))))))))))))))))))))))))))))))))
)
(check-sat)
